Geographic Exponential Decay
40 29 40 214 218 132 158 136 251 83 243 56 210 281 205 25 229 197 19 262 23 32 96 207 223 203 127 169 275 55 308 280 258 24 256 13 135 270 288 152 307
p edge 320 323
e 0 53 3.0
e 1 68 5.0
e 1 0 1.0
e 2 188 9.0
e 2 179 4.0
e 2 1 18.0
e 3 109 2.0
e 3 2 17.0
e 4 34 1.0
e 4 3 4.0
e 5 98 24.0
e 5 4 10.0
e 6 54 1.0
e 6 5 6.0
e 7 27 5.0
e 7 6 11.0
e 8 171 2.0
e 8 7 12.0
e 9 43 4.0
e 9 8 5.0
e 10 128 6.0
e 10 9 3.0
e 11 91 1.0
e 11 10 3.0
e 12 80 4.0
e 12 11 1.0
e 13 39 24.0
e 13 19 47.0
e 13 83 5.0
e 13 182 20.0
e 13 288 34.0
e 13 12 24.0
e 14 254 6.0
e 14 13 21.0
e 15 170 12.0
e 15 16 15.0
e 15 14 4.0
e 17 28 2.0
e 17 15 5.0
e 18 147 8.0
e 18 17 10.0
e 19 161 28.0
e 19 44 84.0
e 19 149 91.0
e 19 232 7.0
e 20 61 4.0
e 20 18 7.0
e 21 69 1.0
e 21 20 1.0
e 22 152 19.0
e 22 21 2.0
e 23 126 40.0
e 23 45 50.0
e 23 132 44.0
e 23 103 100.0
e 23 196 16.0
e 24 237 74.0
e 24 224 5.0
e 24 101 41.0
e 24 199 35.0
e 24 162 62.0
e 24 22 70.0
e 25 307 3.0
e 25 106 78.0
e 25 26 41.0
e 25 231 90.0
e 25 253 95.0
e 29 167 16.0
e 29 218 39.0
e 29 220 3.0
e 29 184 19.0
e 29 57 84.0
e 29 24 69.0
e 30 76 1.0
e 30 29 43.0
e 31 127 63.0
e 32 239 32.0
e 32 92 64.0
e 32 257 13.0
e 32 221 46.0
e 32 58 71.0
e 32 30 4.0
e 33 254 15.0
e 35 298 2.0
e 35 32 4.0
e 36 214 62.0
e 37 115 3.0
e 37 35 2.0
e 38 40 60.0
e 40 248 16.0
e 40 245 13.0
e 40 41 72.0
e 40 246 1.0
e 41 270 85.0
e 42 164 18.0
e 42 94 20.0
e 42 37 14.0
e 46 222 1.0
e 46 42 13.0
e 47 144 1.0
e 47 46 2.0
e 48 223 22.0
e 49 247 5.0
e 49 47 4.0
e 50 81 2.0
e 50 49 5.0
e 51 52 1.0
e 51 50 1.0
e 55 56 59.0
e 55 111 88.0
e 55 255 75.0
e 55 124 32.0
e 55 183 99.0
e 56 75 10.0
e 56 299 85.0
e 56 229 13.0
e 56 127 38.0
e 57 67 22.0
e 59 192 1.0
e 59 51 1.0
e 60 238 2.0
e 60 59 2.0
e 62 141 10.0
e 62 60 6.0
e 63 157 3.0
e 63 62 10.0
e 64 93 3.0
e 64 63 11.0
e 65 223 38.0
e 66 70 1.0
e 66 64 9.0
e 70 260 23.0
e 71 288 49.0
e 72 73 10.0
e 72 66 7.0
e 74 148 1.0
e 74 72 4.0
e 77 244 10.0
e 77 74 1.0
e 78 207 40.0
e 79 95 4.0
e 79 77 2.0
e 82 311 1.0
e 82 79 4.0
e 83 84 22.0
e 83 85 92.0
e 83 256 61.0
e 83 119 28.0
e 86 158 69.0
e 86 82 5.0
e 87 202 5.0
e 87 86 6.0
e 88 165 1.0
e 88 87 2.0
e 89 127 60.0
e 90 303 3.0
e 90 88 1.0
e 96 110 92.0
e 96 97 95.0
e 96 98 87.0
e 96 276 32.0
e 96 127 48.0
e 99 100 4.0
e 99 90 5.0
e 102 173 2.0
e 102 99 4.0
e 104 105 4.0
e 104 102 1.0
e 107 210 41.0
e 108 112 11.0
e 108 104 5.0
e 113 118 5.0
e 113 108 1.0
e 114 183 23.0
e 116 122 5.0
e 116 113 1.0
e 117 290 3.0
e 117 116 2.0
e 120 143 1.0
e 120 117 1.0
e 121 123 2.0
e 121 120 8.0
e 125 127 96.0
e 129 130 15.0
e 129 236 17.0
e 129 131 11.0
e 129 121 1.0
e 132 262 1.0
e 132 304 33.0
e 132 133 12.0
e 132 134 10.0
e 135 177 94.0
e 135 300 73.0
e 135 297 58.0
e 135 136 39.0
e 135 306 14.0
e 136 280 91.0
e 136 137 57.0
e 136 138 4.0
e 136 139 5.0
e 140 142 1.0
e 140 129 8.0
e 145 277 5.0
e 145 140 1.0
e 146 150 8.0
e 146 145 7.0
e 151 180 22.0
e 151 256 87.0
e 152 245 25.0
e 152 153 19.0
e 152 154 99.0
e 152 261 26.0
e 155 176 1.0
e 155 146 10.0
e 156 240 12.0
e 156 155 3.0
e 158 159 85.0
e 158 160 32.0
e 158 163 59.0
e 158 204 66.0
e 166 168 3.0
e 168 169 62.0
e 169 172 92.0
e 169 178 43.0
e 169 291 65.0
e 169 174 90.0
e 172 256 29.0
e 175 181 23.0
e 175 156 9.0
e 181 185 22.0
e 186 187 2.0
e 186 175 2.0
e 189 190 5.0
e 189 186 1.0
e 191 193 2.0
e 191 189 1.0
e 194 223 66.0
e 195 197 6.0
e 197 305 21.0
e 197 198 28.0
e 197 258 19.0
e 197 200 3.0
e 201 264 9.0
e 201 191 3.0
e 203 205 37.0
e 203 206 40.0
e 203 207 65.0
e 203 269 49.0
e 203 288 51.0
e 205 207 23.0
e 205 249 92.0
e 205 208 70.0
e 205 209 46.0
e 207 241 94.0
e 207 208 33.0
e 210 242 51.0
e 210 281 57.0
e 210 211 74.0
e 210 212 37.0
e 213 214 95.0
e 214 215 85.0
e 214 216 62.0
e 214 223 77.0
e 217 218 56.0
e 218 219 9.0
e 218 223 29.0
e 218 250 30.0
e 224 225 14.0
e 226 227 1.0
e 226 201 1.0
e 228 307 92.0
e 229 230 24.0
e 229 275 19.0
e 229 233 56.0
e 229 234 54.0
e 235 243 35.0
e 243 301 7.0
e 243 251 72.0
e 243 252 53.0
e 243 256 69.0
e 251 259 16.0
e 251 256 93.0
e 251 258 79.0
e 251 262 2.0
e 258 262 24.0
e 258 289 65.0
e 258 263 9.0
e 262 265 90.0
e 262 266 82.0
e 267 268 4.0
e 267 226 12.0
e 270 302 20.0
e 270 271 8.0
e 270 272 91.0
e 270 273 76.0
e 271 316 4.0
e 274 275 63.0
e 275 278 15.0
e 275 279 75.0
e 275 294 74.0
e 279 280 64.0
e 280 281 23.0
e 280 282 86.0
e 280 284 91.0
e 281 283 13.0
e 281 285 20.0
e 281 286 96.0
e 287 288 61.0
e 288 292 55.0
e 293 295 44.0
e 293 296 2.0
e 293 297 47.0
e 305 307 80.0
e 307 308 6.0
e 307 309 44.0
e 308 310 42.0
e 308 312 91.0
e 308 313 81.0
e 308 314 23.0
e 314 315 9.0
e 317 318 5.0
e 317 267 4.0
e 319 317 4.0
